RT is False
Default write of storage_offers_DA.csv just to have a file (but constraint should be inactive)
Reading model...
...model read.
creating competitive generators file...
...competitive generators recorded.
Loading data...
.. day-ahead data with real-time VRE data read.
Compiling instance...
...instance created.
Creating Offer Mitigation (model will solve as dispatch if TRUE)...
Solving...

Welcome to IBM(R) ILOG(R) CPLEX(R) Interactive Optimizer 12.9.0.0
  with Simplex, Mixed Integer & Barrier Optimizers
5725-A06 5725-A29 5724-Y48 5724-Y49 5724-Y54 5724-Y55 5655-Y21
Copyright IBM Corp. 1988, 2019.  All Rights Reserved.

Type 'help' for a list of available commands.
Type 'help' followed by a command name for more
information on commands.

CPLEX> Logfile 'cplex.log' closed.
Logfile 'C:\Users\Luke\Desktop\test919\logs\tmp41mch0x5.cplex.log' open.
CPLEX> New value for parallel optimization mode: -1
CPLEX> New value for mixed integer optimality gap tolerance: 0.01
CPLEX> New value for integrality tolerance: 1e-09
CPLEX> New value for feasibility tolerance: 0.01
CPLEX> New value for deterministic time limit in ticks: 75000
CPLEX> Problem 'C:\Users\Luke\Desktop\test919\logs\tmp6ele8aro.pyomo.lp' read.
Read time = 0.05 sec. (3.04 ticks)
CPLEX> Problem name         : C:\Users\Luke\Desktop\test919\logs\tmp6ele8aro.pyomo.lp
Objective sense      : Minimize
Variables            :   26081  [Nneg: 1,  Box: 21616,  Free: 4464]
Objective nonzeros   :    2496
Linear constraints   :   27515  [Less: 14006,  Greater: 4416,  Equal: 9093]
  Nonzeros           :   89219
  RHS nonzeros       :   12264

Variables            : Min LB: -5000.000        Max UB: 1000000.       
Objective nonzeros   : Min   : 15.73158         Max   : 124.0997       
Linear constraints   :
  Nonzeros           : Min   : 0.8500000        Max   : 3000.000       
  RHS nonzeros       : Min   : 0.008333333      Max   : 5000.000       
CPLEX> CPXPARAM_Parallel                                -1
CPXPARAM_Simplex_Tolerances_Feasibility          0.01
CPXPARAM_DetTimeLimit                            75000
CPXPARAM_MIP_Tolerances_MIPGap                   0.01
CPXPARAM_MIP_Tolerances_Integrality              1.0000000000000001e-09
Parallel mode: opportunistic, using up to 12 threads for concurrent optimization.
Tried aggregator 1 time.
LP Presolve eliminated 21377 rows and 15487 columns.
Aggregator did 751 substitutions.
Reduced LP has 5387 rows, 9843 columns, and 31778 nonzeros.
Presolve time = 0.05 sec. (30.20 ticks)
Symmetry aggregator did 5563 additional substitutions.
Initializing dual steep norms . . .

Iteration log . . .
Iteration:     1   Dual objective     =             0.000000
Perturbation started.
Iteration:   101   Dual objective     =             0.000000
Iteration:   286   Dual objective     =            49.623941
Iteration:   433   Dual objective     =            71.404621
Iteration:   642   Dual objective     =            74.169248
Iteration:   909   Dual objective     =            74.196792
Iteration:  1103   Dual objective     =            74.221285
Iteration:  1351   Dual objective     =         39608.783969
Removing perturbation.

Dual crossover.
  Dual:  Fixing 1 variable.
        0 DMoves:  Infeasibility  0.00000000e+00  Objective  4.67942670e+04
  Dual:  Pushed 0, exchanged 1.
  Primal:  Fixed no variables.

Dual simplex solved model.


Dual simplex - Optimal:  Objective =  4.6794266981e+04
Solution time =    0.11 sec.  Iterations = 1532 (0)
Deterministic time = 84.37 ticks  (774.06 ticks/sec)

CPLEX> Solution written to file 'C:\Users\Luke\Desktop\test919\logs\tmpwgjj89qk.cplex.sol'.
CPLEX> Exporting results... 
...storage offer mitigation file created
Converting model to MPEC...
...converted
NOTE: initial MIP solve with only storage competitive to get feasible solution
Solving...

Welcome to IBM(R) ILOG(R) CPLEX(R) Interactive Optimizer 12.9.0.0
  with Simplex, Mixed Integer & Barrier Optimizers
5725-A06 5725-A29 5724-Y48 5724-Y49 5724-Y54 5724-Y55 5655-Y21
Copyright IBM Corp. 1988, 2019.  All Rights Reserved.

Type 'help' for a list of available commands.
Type 'help' followed by a command name for more
information on commands.

CPLEX> Logfile 'cplex.log' closed.
Logfile 'C:\Users\Luke\Desktop\test919\logs\tmpyu_f85db.cplex.log' open.
CPLEX> New value for parallel optimization mode: -1
CPLEX> New value for mixed integer optimality gap tolerance: 0.01
CPLEX> New value for integrality tolerance: 1e-09
CPLEX> New value for feasibility tolerance: 0.01
CPLEX> New value for deterministic time limit in ticks: 75000
CPLEX> Problem 'C:\Users\Luke\Desktop\test919\logs\tmph1l9reku.pyomo.lp' read.
Read time = 0.20 sec. (14.78 ticks)
CPLEX> Problem name         : C:\Users\Luke\Desktop\test919\logs\tmph1l9reku.pyomo.lp
Objective sense      : Maximize
Variables            :   53805  [Nneg: 1,  Box: 22000,  Free: 4464,
                                 Binary: 27340]
Objective nonzeros   :    9022
Linear constraints   :  123205  [Less: 41346,  Greater: 59096,  Equal: 22763]
  Nonzeros           :  291746
  RHS nonzeros       :   67412

Variables            : Min LB: -5000.000        Max UB: 1000000.       
Objective nonzeros   : Min   : 0.008333333      Max   : 2500.000       
Linear constraints   :
  Nonzeros           : Min   : 0.008333333      Max   : 1000000.       
  RHS nonzeros       : Min   : 0.008333333      Max   : 1000000.       
CPLEX> CPXPARAM_Parallel                                -1
CPXPARAM_Simplex_Tolerances_Feasibility          0.01
CPXPARAM_DetTimeLimit                            75000
CPXPARAM_MIP_Tolerances_MIPGap                   0.01
CPXPARAM_MIP_Tolerances_Integrality              1.0000000000000001e-09
Tried aggregator 3 times.
MIP Presolve eliminated 88697 rows and 19018 columns.
MIP Presolve added 3369 rows and 0 columns.
MIP Presolve modified 24820 coefficients.
Aggregator did 12981 substitutions.
Reduced MIP has 24896 rows, 21247 columns, and 71019 nonzeros.
Reduced MIP has 8398 binaries, 0 generals, 0 SOSs, and 0 indicators.
Presolve time = 0.25 sec. (173.55 ticks)
Probing fixed 387 vars, tightened 2848 bounds.
Probing time = 1.63 sec. (882.19 ticks)
Tried aggregator 2 times.
MIP Presolve eliminated 873 rows and 774 columns.
MIP Presolve modified 2206 coefficients.
Aggregator did 40 substitutions.
Reduced MIP has 23983 rows, 20433 columns, and 68379 nonzeros.
Reduced MIP has 8011 binaries, 0 generals, 0 SOSs, and 0 indicators.
Presolve time = 0.09 sec. (65.85 ticks)
Probing time = 0.05 sec. (15.73 ticks)
Clique table members: 6438.
MIP emphasis: balance optimality and feasibility.
MIP search method: dynamic search.
Parallel mode: opportunistic, using up to 12 threads.
Root relaxation solution time = 0.45 sec. (531.77 ticks)

        Nodes                                         Cuts/
   Node  Left     Objective  IInf  Best Integer    Best Bound    ItCnt     Gap

      0     0        0.0000   698                      0.0000     6585         
*     0+    0                            0.0000        0.0000             0.00%
      0     0        cutoff              0.0000        0.0000     6585    0.00%
Elapsed time = 3.36 sec. (2127.55 ticks, tree = 0.01 MB, solutions = 1)

Root node processing (before b&c):
  Real time             =    3.38 sec. (2129.50 ticks)
Parallel b&c, 12 threads:
  Real time             =    0.00 sec. (0.00 ticks)
  Sync time (average)   =    0.00 sec.
  Wait time (average)   =    0.00 sec.
                          ------------
Total (root+branch&cut) =    3.38 sec. (2129.50 ticks)

Solution pool: 1 solution saved.

MIP - Integer optimal solution:  Objective =  2.6066118153e-09
Solution time =    3.38 sec.  Iterations = 6585  Nodes = 0
Deterministic time = 2129.65 ticks  (631.01 ticks/sec)

CPLEX> Incumbent solution written to file 'C:\Users\Luke\Desktop\test919\logs\tmp9t0gtcyg.cplex.sol'.
CPLEX> NOTE: no warmstart specified for MIP iteration, default behavior is true
NOTE: resolving with all competitive generators using storage-only solution to warmstart
Solving...

Welcome to IBM(R) ILOG(R) CPLEX(R) Interactive Optimizer 12.9.0.0
  with Simplex, Mixed Integer & Barrier Optimizers
5725-A06 5725-A29 5724-Y48 5724-Y49 5724-Y54 5724-Y55 5655-Y21
Copyright IBM Corp. 1988, 2019.  All Rights Reserved.

Type 'help' for a list of available commands.
Type 'help' followed by a command name for more
information on commands.

CPLEX> Logfile 'cplex.log' closed.
Logfile 'C:\Users\Luke\Desktop\test919\logs\tmpoiewjl84.cplex.log' open.
CPLEX> New value for parallel optimization mode: -1
CPLEX> New value for mixed integer optimality gap tolerance: 0.01
CPLEX> New value for integrality tolerance: 1e-09
CPLEX> New value for feasibility tolerance: 0.01
CPLEX> New value for deterministic time limit in ticks: 75000
CPLEX> Problem 'C:\Users\Luke\Desktop\test919\logs\tmpa_2ov_6u.pyomo.lp' read.
Read time = 0.20 sec. (14.81 ticks)
CPLEX> MIP start file 'C:\Users\Luke\Desktop\test919\logs\tmp658w4mm6.cplex.mst' read.
CPLEX> Problem name         : C:\Users\Luke\Desktop\test919\logs\tmpa_2ov_6u.pyomo.lp
Objective sense      : Maximize
Variables            :   54525  [Nneg: 1,  Box: 22720,  Free: 4464,
                                 Binary: 27340]
Objective nonzeros   :    9718
Linear constraints   :  123205  [Less: 41346,  Greater: 59096,  Equal: 22763]
  Nonzeros           :  291746
  RHS nonzeros       :   67412

Variables            : Min LB: -5000.000        Max UB: 1000000.       
Objective nonzeros   : Min   : 0.008333333      Max   : 2500.000       
Linear constraints   :
  Nonzeros           : Min   : 0.008333333      Max   : 1000000.       
  RHS nonzeros       : Min   : 0.008333333      Max   : 1000000.       
CPLEX> CPXPARAM_Parallel                                -1
CPXPARAM_Simplex_Tolerances_Feasibility          0.01
CPXPARAM_DetTimeLimit                            75000
CPXPARAM_MIP_Tolerances_MIPGap                   0.01
CPXPARAM_MIP_Tolerances_Integrality              1.0000000000000001e-09
Warning:  No solution found from 1 MIP starts.
Retaining values of one MIP start for possible repair.
Tried aggregator 3 times.
MIP Presolve eliminated 88697 rows and 19738 columns.
MIP Presolve added 3369 rows and 0 columns.
MIP Presolve modified 24820 coefficients.
Aggregator did 12981 substitutions.
Reduced MIP has 24896 rows, 21247 columns, and 71019 nonzeros.
Reduced MIP has 8398 binaries, 0 generals, 0 SOSs, and 0 indicators.
Presolve time = 0.23 sec. (173.91 ticks)
Probing fixed 387 vars, tightened 2848 bounds.
Probing time = 1.80 sec. (882.19 ticks)
Tried aggregator 2 times.
MIP Presolve eliminated 873 rows and 774 columns.
MIP Presolve modified 2206 coefficients.
Aggregator did 40 substitutions.
Reduced MIP has 23983 rows, 20433 columns, and 68379 nonzeros.
Reduced MIP has 8011 binaries, 0 generals, 0 SOSs, and 0 indicators.
Presolve time = 0.09 sec. (65.85 ticks)
Probing time = 0.05 sec. (15.73 ticks)
Clique table members: 6438.
MIP emphasis: balance optimality and feasibility.
MIP search method: dynamic search.
Parallel mode: opportunistic, using up to 12 threads.
Root relaxation solution time = 0.42 sec. (311.50 ticks)

        Nodes                                         Cuts/
   Node  Left     Objective  IInf  Best Integer    Best Bound    ItCnt     Gap

      0     0   144434.4528  1660                 144434.4528     6772         
      0     0   141268.8324   598                   Cuts: 838     7216         
      0     0   140722.4035   494                   Cuts: 334     7386         
      0     0   140548.5481   452                   Cuts: 174     7462         
      0     0   139559.4249   411                   Cuts: 111     7543         
      0     0   139559.4249   393                   Cuts: 102     7585         
      0     0   139559.4249   384                    Cuts: 69     7603         
      0     0   139559.4249   373                    Cuts: 66     7620         
      0     0   139559.4249   360                    Cuts: 61     7632         
      0     0   139559.4249   357                    Cuts: 54     7635         
      0     0   133883.5488   356                    Cuts: 58     7664         
      0     0   133822.2173   354                    Cuts: 61     7673         
      0     0   133822.2173   355                    Cuts: 48     7675         
Repair heuristic found nothing.
      0     5    infeasible                       Impl Bds: 2     7776         
Elapsed time = 14.16 sec. (6997.49 ticks, tree = 0.02 MB, solutions = 0)
    101    37   109339.6534   298                 122350.8054     8670         
    205   132    infeasible                       122350.8054    13670         
    338   151    81349.9370   266                 122350.8054    15186         
    515   220    57920.7255   288                 122350.8054    24162         
    736   339    50941.3857   264                 122350.8054    26943         
    978   476    45074.9886   243                 122350.8054    29011         
   1218   589    76326.7412   291                 122350.8054    32605         
   1447   876    30421.3929   285                 122350.8054    39262         
   1668  1006     4877.1058   177                 122350.8054    40332         
   2895  1541   -55241.3198   179                 119989.7870    44384         
Elapsed time = 26.97 sec. (10107.16 ticks, tree = 12.22 MB, solutions = 0)
*  3244+  922                         7386.0467   119989.7870              --- 
   4160  1041    95265.5433   267     7386.0467   119108.0248    49732     --- 
   4323  1308        cutoff           7386.0467   100344.5980    63147     --- 
   4837   122    30080.3064   151     7386.0467    86638.1235    69156     --- 
   5195   498    11103.8323   182     7386.0467    63536.4659    89105  760.22%
   6022   689     7878.6404    99     7386.0467    35623.8396   107422  382.31%
   7039   153    13336.9527    88     7386.0467    13633.3577   145224   84.58%
   7933   570     9929.3885    20     7386.0467    13336.9527   150319   80.57%
   8378   932     9845.0079    12     7386.0467    13336.9527   156613   80.57%
   8610  1086     9845.0079    13     7386.0467    13336.9527   158708   80.57%
Elapsed time = 65.27 sec. (23383.68 ticks, tree = 7.01 MB, solutions = 1)
   8727  1269     9929.3885    13     7386.0467    13336.9527   162195   80.57%
   8801  1165     9929.3885    13     7386.0467    13336.9527   160214   80.57%
   8871  1183        cutoff           7386.0467    13336.9527   160426   80.57%
   8927  1274     9929.3885    11     7386.0467    13336.9527   162295   80.57%
   9015  1221        cutoff           7386.0467    13336.9527   161048   80.57%
   9100  1278     9929.3885    12     7386.0467    13336.9527   162233   80.57%
   9192  1444        cutoff           7386.0467    13336.9527   163548   80.57%
   9348  1526     9929.3885    13     7386.0467    13336.9527   163856   80.57%
   9422  1744     9799.3043    13     7386.0467    13336.9527   166011   80.57%
   9494  1666        cutoff           7386.0467    13336.9527   165149   80.57%
Elapsed time = 75.05 sec. (33245.07 ticks, tree = 12.51 MB, solutions = 1)
   9611  1641        cutoff           7386.0467    13284.8911   164851   79.86%
*  9675  1720      integral     0     9817.3403    13284.8911   166084   35.32%
   9692  1616    10124.4120    14     9817.3403    13284.8911   164655   35.32%
   9829  1704     9929.3885    14     9817.3403    13284.8911   165837   35.32%
   9884  1864     9799.3043    12     9817.3403    13284.8911   167121   35.32%
   9963  1830        cutoff           9817.3403    13284.8911   166896   35.32%
  10059  1265    10124.4120    14     9817.3403    13284.8911   168091   35.32%
  10113  1790        cutoff           9817.3403    13284.8911   166604   35.32%
  10239  1304    10376.9278    48     9817.3403    13284.8911   171490   35.32%
  10411  1237    10124.4120    13     9817.3403    13284.8911   167952   35.32%
  10618  1330    10124.4120    40     9817.3403    13284.8911   171760   35.32%
Elapsed time = 84.67 sec. (42886.75 ticks, tree = 9.36 MB, solutions = 2)
  10776  1359        cutoff           9817.3403    13284.8911   171439   35.32%
  10867  1372    10124.4120    13     9817.3403    13284.8911   171748   35.32%
  10923  1376        cutoff           9817.3403    13284.8911   172017   35.32%
  11009  1298        cutoff           9817.3403    13284.8911   170991   35.32%
  11049  1302        cutoff           9817.3403    13284.8911   170996   35.32%
  11090  1321        cutoff           9817.3403    13284.8911   171507   35.32%
  11157  1404     9929.3885    12     9817.3403    13284.8911   172486   35.32%
  11232  1429    10124.4120    14     9817.3403    13284.8911   172551   35.32%
  11278  1335        cutoff           9817.3403    13284.8911   172119   35.32%
  11325  1800        cutoff           9817.3403    13284.8911   175937   35.32%
Elapsed time = 92.72 sec. (52616.41 ticks, tree = 14.91 MB, solutions = 2)
  11368  1638     9929.3885    10     9817.3403    13284.8911   174839   35.32%
  11444  1576     9929.3885    14     9817.3403    13284.8911   174163   35.32%
  11483  1631    10124.4120    11     9817.3403    13284.8911   174859   35.32%
  11525  1962        cutoff           9817.3403    13284.8911   177603   35.32%
  11572  1631        cutoff           9817.3403    13284.8911   175199   35.32%
  11640  1971     9929.3885    14     9817.3403    13284.8911   177673   35.32%
  11682  1975        cutoff           9817.3403    13284.8911   177668   35.32%
  11730  2036        cutoff           9817.3403    13284.8911   178644   35.32%
  11772  2064     9929.3885    14     9817.3403    13284.8911   179135   35.32%
  11816  2100        cutoff           9817.3403    13284.8911   179251   35.32%
Elapsed time = 101.00 sec. (62456.19 ticks, tree = 18.34 MB, solutions = 2)
  11847  2101        cutoff           9817.3403    13284.8911   179253   35.32%
  11884  2059        cutoff           9817.3403    13284.8911   179146   35.32%
  11930  2104    10124.4120    13     9817.3403    13284.8911   179258   35.32%
  11975  2159        cutoff           9817.3403    13284.8911   179553   35.32%
  12006  2085        cutoff           9817.3403    13284.8911   179182   35.32%
  12056  2162        cutoff           9817.3403    13284.8911   179710   35.32%
  12102  2173     9929.3885    10     9817.3403    13284.8911   179586   35.32%
  12122  2159        cutoff           9817.3403    13284.8911   179558   35.32%
  12141  2156        cutoff           9817.3403    13284.8911   179522   35.32%
  12158  2173     9929.3885    10     9817.3403    13284.8911   179590   35.32%
Elapsed time = 105.31 sec. (72291.20 ticks, tree = 19.23 MB, solutions = 2)
  12166  2172        cutoff           9817.3403    13284.8911   179591   35.32%
  12172  2161        cutoff           9817.3403    13284.8911   179558   35.32%

GUB cover cuts applied:  1
Clique cuts applied:  4
Cover cuts applied:  19
Implied bound cuts applied:  24
Flow cuts applied:  427
Mixed integer rounding cuts applied:  52
Gomory fractional cuts applied:  103

Root node processing (before b&c):
  Real time             =   13.67 sec. (6982.42 ticks)
Parallel b&c, 12 threads:
  Real time             =   92.64 sec. (68842.12 ticks)
  Sync time (average)   =    0.69 sec.
  Wait time (average)   =    0.03 sec.
                          ------------
Total (root+branch&cut) =  106.31 sec. (75824.53 ticks)

Solution pool: 2 solutions saved.

MIP - Deterministic time limit exceeded, integer feasible:  Objective =  9.8173402606e+03
Current MIP best bound =  1.3284891134e+04 (gap = 3467.55, 35.32%)
Solution time =  106.31 sec.  Iterations = 180710  Nodes = 12174 (2254)
Deterministic time = 75824.69 ticks  (713.22 ticks/sec)

CPLEX> Incumbent solution written to file 'C:\Users\Luke\Desktop\test919\logs\tmp_8yut780.cplex.sol'.
CPLEX> Exporting results... 
